c turning on binary mode checking
c parsing input formula with 259840 variables and 1039929 clauses
c finished parsing, read 4067874 bytes from proof file
c detected empty clause; start verification via backward checking
c 3363 of 1039929 clauses in core                            
c 1212 of 160202 lemmas in core using 30626 resolution steps
c 0 RAT lemmas in core; 107 redundant literals in core lemmas
s VERIFIED
c verification time: 1.383 seconds
